[on. 05. april 16:35:35 +0200 2023]  ./input/alternate_g_np_100/100-3-4.gcc
Set parameter Username
Academic license - for non-commercial use only - expires 2024-03-28
Set parameter TimeLimit to value 1800
Set parameter PreCrush to value 1
Set parameter LazyConstraints to value 1
Gurobi Optimizer version 10.0.1 build v10.0.1rc0 (linux64)

CPU model: AMD Ryzen 9 5950X 16-Core Processor, instruction set [SSE2|AVX|AVX2]
Thread count: 16 physical cores, 32 logical processors, using up to 32 threads

Optimize a model with 109 rows, 1000 columns and 2800 nonzeros
Model fingerprint: 0x39923743
Variable types: 0 continuous, 1000 integer (1000 binary)
Coefficient statistics:
  Matrix range     [1e+00, 1e+00]
  Objective range  [2e+00, 1e+02]
  Bounds range     [1e+00, 1e+00]
  RHS range        [1e+00, 1e+00]
Presolve added 8 rows and 8 columns
Presolve time: 0.00s
Presolved: 117 rows, 1008 columns, 2024 nonzeros
Variable types: 0 continuous, 1008 integer (1000 binary)

Root relaxation: objective 4.663000e+03, 1 iterations, 0.00 seconds (0.00 work units)

    Nodes    |    Current Node    |     Objective Bounds      |     Work
 Expl Unexpl |  Obj  Depth IntInf | Incumbent    BestBd   Gap | It/Node Time

     0     0 4663.00000    0    -          - 4663.00000      -     -    0s
     0     0 4663.00000    0    -          - 4663.00000      -     -    0s
     0     0 4663.00000    0    -          - 4663.00000      -     -    0s
     0     0 4663.00000    0    -          - 4663.00000      -     -    0s
     0     0 4663.00000    0    -          - 4663.00000      -     -    0s
     0     0 4663.00000    0    8          - 4663.00000      -     -    0s
     0     0 4663.00000    0    -          - 4663.00000      -     -    0s
     0     0 4663.00000    0   25          - 4663.00000      -     -    0s
     0     0 4663.00000    0    -          - 4663.00000      -     -    0s
     0     0 4663.00000    0    -          - 4663.00000      -     -    0s
     0     0 4663.00000    0   16          - 4663.00000      -     -    0s
H    0     0                    4661.0000000 4663.00000  0.04%     -    0s
     0     0 4663.00000    0    8 4661.00000 4663.00000  0.04%     -    0s
     0     0 4663.00000    0    8 4661.00000 4663.00000  0.04%     -    0s
H    0     0                    4663.0000000 4663.00000  0.00%     -    0s
     0     0 4663.00000    0    8 4663.00000 4663.00000  0.00%     -    0s

Cutting planes:
  User: 2
  Gomory: 3
  MIR: 2
  Relax-and-lift: 5
  Lazy constraints: 31

Explored 1 nodes (45 simplex iterations) in 0.02 seconds (0.02 work units)
Thread count was 32 (of 32 available processors)

Solution count 2: 4663 4661 

Optimal solution found (tolerance 1.00e-04)
Best objective 4.663000000000e+03, best bound 4.663000000000e+03, gap 0.0000%

User-callback calls 163, time in user-callback 0.00 sec
Minimal separator inequalities added: 38
Indegree inequalities added: 0
Passed solution check
[on. 05. april 16:35:35 +0200 2023]  done

